Name: eil101.out.tour
COMMENT: Tour for eil101.out.tour
TYPE: TOUR
DIMENSION: 101
TOUR SECTION 
1
69
27
101
53
58
40
21
73
72
74
75
56
39
67
23
22
41
4
55
25
13
94
95
97
87
42
2
57
15
43
92
59
99
96
93
85
91
44
38
14
61
16
86
5
84
17
60
83
8
82
48
47
36
49
64
7
88
62
11
19
10
90
63
32
31
70
30
20
66
46
45
18
52
37
100
98
6
89
28
50
76
77
68
80
54
12
26
29
24
3
79
78
34
33
81
9
71
65
35
51
1
-1
EOF
